Set parameter TokenServer to value "hpc-licenses.hpcc.usc.edu"
Set parameter TimeLimit to value 3600
Gurobi Optimizer version 9.5.1 build v9.5.1rc2 (linux64)
Thread count: 20 physical cores, 20 logical processors, using up to 20 threads
Optimize a model with 6007 rows, 4529 columns and 24534 nonzeros
Model fingerprint: 0x63f24b1a
Variable types: 4506 continuous, 23 integer (23 binary)
Coefficient statistics:
  Matrix range     [1e+00, 1e+00]
  Objective range  [2e-04, 1e+00]
  Bounds range     [1e+00, 1e+00]
  RHS range        [1e+00, 1e+02]
Presolve removed 1520 rows and 1515 columns
Presolve time: 0.05s
Presolved: 4487 rows, 3014 columns, 21975 nonzeros
Variable types: 2994 continuous, 20 integer (20 binary)
Found heuristic solution: objective 223.5325360

Root relaxation: objective 2.330648e+02, 3269 iterations, 0.13 seconds (0.21 work units)

    Nodes    |    Current Node    |     Objective Bounds      |     Work
 Expl Unexpl |  Obj  Depth IntInf | Incumbent    BestBd   Gap | It/Node Time

     0     0  233.06476    0    3  223.53254  233.06476  4.26%     -    0s
     0     0  232.86961    0    3  223.53254  232.86961  4.18%     -    0s
     0     0  232.84159    0    4  223.53254  232.84159  4.16%     -    0s
     0     0  232.84076    0    4  223.53254  232.84076  4.16%     -    0s
H    0     0                     232.4119437  232.80783  0.17%     -    0s
     0     0  232.41194    0    4  232.41194  232.41194  0.00%     -    0s

Cutting planes:
  Gomory: 5
  MIR: 215
  Flow cover: 4
  RLT: 17
  Relax-and-lift: 23

Explored 1 nodes (3876 simplex iterations) in 0.60 seconds (0.65 work units)
Thread count was 20 (of 20 available processors)

Solution count 2: 232.412 223.533 

Optimal solution found (tolerance 1.00e-04)
Best objective 2.324119437363e+02, best bound 2.324119437363e+02, gap 0.0000%



#########node  1
V1.7
#########node  2
0.07894736842105263,0.9210526315789473
#########node  3
1.0,0.0


Total Solving Time 0.992485761642456
obj value 232.41194373634687
Policy Regret train (Sum) 4.147362670960024
Best Treatment Found train (%) 70.19999999999999
treatment classification acc train (%) 75.2
Policy Regret test (Sum) 63.74597884426457
Best Treatment Found test (%) 73.06
treatment classification acc test (%) 74.37
